 
data_12a 
 
_audit_creation_method            SHELXL-97 
_chemical_name_systematic 
; 
 ? 
; 
_chemical_name_common             
'p-cyanobenzenediazonium tosylate (12a)' 
_chemical_melting_point           ? 
_chemical_formula_moiety          'C7 H5 N3, C7 H7 O3 S' 
_chemical_formula_sum             'C14 H11 N3 O3 S' 
_chemical_formula_weight          301.32 
 
loop_ 
 _atom_type_symbol 
 _atom_type_description 
 _atom_type_scat_dispersion_real 
 _atom_type_scat_dispersion_imag 
 _atom_type_scat_source 
 'C'  'C'  -0.0020   0.0021 
 'International Tables Vol C Tables 4.2.6.8 and 6.1.1.4' 
 'H'  'H'   0.0000   0.0000 
 'International Tables Vol C Tables 4.2.6.8 and 6.1.1.4' 
 'N'  'N'  -0.0031   0.0043 
 'International Tables Vol C Tables 4.2.6.8 and 6.1.1.4' 
 'O'  'O'  -0.0042   0.0079 
 'International Tables Vol C Tables 4.2.6.8 and 6.1.1.4' 
 'S'  'S'   0.1265   0.1577 
 'International Tables Vol C Tables 4.2.6.8 and 6.1.1.4' 
 
_symmetry_cell_setting            Monoclinic 
_symmetry_space_group_name_H-M    P2(1)/c 
 
loop_ 
 _symmetry_equiv_pos_as_xyz 
 'x, y, z' 
 '-x, y+1/2, -z+1/2' 
 '-x, -y, -z' 
 'x, -y-1/2, z-1/2' 
 
_cell_length_a                    5.8450(12) 
_cell_length_b                    8.8470(18) 
_cell_length_c                    26.650(5) 
_cell_angle_alpha                 90.00 
_cell_angle_beta                  94.29(3) 
_cell_angle_gamma                 90.00 
_cell_volume                      1374.2(5) 
_cell_formula_units_Z             4 
_cell_measurement_temperature     90(2) 
_cell_measurement_reflns_used     2681 
_cell_measurement_theta_min       3.45  
_cell_measurement_theta_max       30.40  
 
_exptl_crystal_description        block 
_exptl_crystal_colour             colorless
_exptl_crystal_size_max           0.10 
_exptl_crystal_size_mid           0.10 
_exptl_crystal_size_min           0.05 
_exptl_crystal_density_meas       ? 
_exptl_crystal_density_diffrn     1.456 
_exptl_crystal_density_method     'not measured' 
_exptl_crystal_F_000              624 
_exptl_absorpt_coefficient_mu     0.338 
_exptl_absorpt_correction_type    'semi-empirical' 
_exptl_absorpt_correction_T_min   0.9670 
_exptl_absorpt_correction_T_max   0.9833 
_exptl_absorpt_process_details    'HKL2000'
 
_exptl_special_details 
; 
 ? 
; 
 
_diffrn_ambient_temperature       90(2) 
_diffrn_radiation_wavelength      0.80000 
_diffrn_radiation_type            'synchrotron radiation' 
_diffrn_radiation_source          'PAL_4A' 
_diffrn_radiation_monochromator   graphite
_diffrn_measurement_device_type   'ADSC Quantum 210'
_diffrn_measurement_method        '\j-scan'
_diffrn_detector_area_resol_mean  0 
_diffrn_standards_number          0 
_diffrn_standards_interval_count  0 
_diffrn_standards_interval_time   0 
_diffrn_standards_decay_%         0 
_diffrn_reflns_number             4808 
_diffrn_reflns_av_R_equivalents   0.0476 
_diffrn_reflns_av_sigmaI/netI     0.0426 
_diffrn_reflns_limit_h_min        0 
_diffrn_reflns_limit_h_max        7 
_diffrn_reflns_limit_k_min        -11 
_diffrn_reflns_limit_k_max        11 
_diffrn_reflns_limit_l_min        -33 
_diffrn_reflns_limit_l_max        33 
_diffrn_reflns_theta_min          3.45 
_diffrn_reflns_theta_max          30.40 
_reflns_number_total              2681 
_reflns_number_gt                 2577 
_reflns_threshold_expression      >2sigma(I) 
 
_computing_data_collection        'Quantum 210' 
_computing_cell_refinement        'HKL2000' 
_computing_data_reduction         'HKL2000' 
_computing_structure_solution     'SHELXS-97 (Sheldrick, 1990)' 
_computing_structure_refinement   'SHELXL-97 (Sheldrick, 1997)' 
_computing_molecular_graphics     'Materials Studio 4.1' 
_computing_publication_material   'Materials Studio 4.1'
 
_refine_special_details 
; 
 Refinement of F^2^ against ALL reflections.  The weighted R-factor wR and 
 goodness of fit S are based on F^2^, conventional R-factors R are based 
 on F, with F set to zero for negative F^2^. The threshold expression of 
 F^2^ > 2sigma(F^2^) is used only for calculating R-factors(gt) etc. and is 
 not relevant to the choice of reflections for refinement.  R-factors based 
 on F^2^ are statistically about twice as large as those based on F, and R- 
 factors based on ALL data will be even larger. 
; 
 
_refine_ls_structure_factor_coef  Fsqd  
_refine_ls_matrix_type            full 
_refine_ls_weighting_scheme       calc  
_refine_ls_weighting_details 
 'calc w=1/[\s^2^(Fo^2^)+(0.0901P)^2^+0.4607P] where P=(Fo^2^+2Fc^2^)/3' 
_atom_sites_solution_primary      direct 
_atom_sites_solution_secondary    difmap 
_atom_sites_solution_hydrogens    geom 
_refine_ls_hydrogen_treatment     refall 
_refine_ls_extinction_method      none 
_refine_ls_extinction_coef        ? 
_refine_ls_number_reflns          2681 
_refine_ls_number_parameters      234 
_refine_ls_number_restraints      0 
_refine_ls_R_factor_all           0.0438 
_refine_ls_R_factor_gt            0.0429 
_refine_ls_wR_factor_ref          0.1256 
_refine_ls_wR_factor_gt           0.1242 
_refine_ls_goodness_of_fit_ref    1.036 
_refine_ls_restrained_S_all       1.036 
_refine_ls_shift/su_max           0.000 
_refine_ls_shift/su_mean          0.000 
 
loop_ 
 _atom_site_label 
 _atom_site_type_symbol 
 _atom_site_fract_x 
 _atom_site_fract_y 
 _atom_site_fract_z 
 _atom_site_U_iso_or_equiv 
 _atom_site_adp_type 
 _atom_site_occupancy 
 _atom_site_symmetry_multiplicity 
 _atom_site_calc_flag 
 _atom_site_refinement_flags 
 _atom_site_disorder_assembly 
 _atom_site_disorder_group 
S1 S 0.35631(6) 0.04716(4) 0.311588(11) 0.01306(16) Uani 1 1 d . . . 
O1 O 0.12177(18) -0.00674(12) 0.30223(4) 0.0183(3) Uani 1 1 d . . . 
O2 O 0.37169(19) 0.21096(12) 0.31509(4) 0.0207(3) Uani 1 1 d . . . 
O3 O 0.51056(18) -0.01556(12) 0.27620(4) 0.0183(3) Uani 1 1 d . . . 
N1 N 1.1360(2) -0.28202(13) 0.24742(4) 0.0154(3) Uani 1 1 d . . . 
N2 N 1.1870(2) -0.22569(15) 0.21344(5) 0.0199(3) Uani 1 1 d . . . 
N3 N 0.7815(3) -0.57817(18) 0.45956(5) 0.0297(3) Uani 1 1 d . . . 
C1 C 0.7050(3) -0.21466(18) 0.51441(5) 0.0204(3) Uani 1 1 d . . . 
C2 C 0.6174(3) -0.14916(16) 0.46438(5) 0.0165(3) Uani 1 1 d . . . 
C3 C 0.7536(3) -0.05131(16) 0.43817(6) 0.0182(3) Uani 1 1 d . . . 
C4 C 0.3981(3) -0.18358(16) 0.44327(5) 0.0167(3) Uani 1 1 d . . . 
C5 C 0.6747(3) 0.00975(17) 0.39189(5) 0.0172(3) Uani 1 1 d . . . 
C6 C 0.3166(3) -0.12243(15) 0.39721(5) 0.0152(3) Uani 1 1 d . . . 
C7 C 0.4556(2) -0.02613(15) 0.37142(5) 0.0138(3) Uani 1 1 d . . . 
C8 C 0.9250(3) -0.46584(15) 0.37773(5) 0.0159(3) Uani 1 1 d . . . 
C9 C 0.7907(3) -0.35424(15) 0.35261(5) 0.0161(3) Uani 1 1 d . . . 
C10 C 1.1276(3) -0.51884(16) 0.35951(5) 0.0168(3) Uani 1 1 d . . . 
C11 C 0.8593(2) -0.29187(17) 0.30855(5) 0.0167(3) Uani 1 1 d . . . 
C12 C 1.1999(3) -0.45954(15) 0.31507(5) 0.0159(3) Uani 1 1 d . . . 
C13 C 1.0627(2) -0.34781(15) 0.29198(5) 0.0146(3) Uani 1 1 d . . . 
C14 C 0.8460(3) -0.52874(17) 0.42355(6) 0.0205(3) Uani 1 1 d . . . 
H1A H 0.652(4) -0.159(3) 0.5421(9) 0.045(6) Uiso 1 1 d . . . 
H1B H 0.872(5) -0.211(3) 0.5198(10) 0.055(7) Uiso 1 1 d . . . 
H1C H 0.662(4) -0.321(3) 0.5185(9) 0.044(6) Uiso 1 1 d . . . 
H3 H 0.913(4) -0.027(2) 0.4506(8) 0.023(5) Uiso 1 1 d . . . 
H4 H 0.302(3) -0.250(2) 0.4606(7) 0.019(4) Uiso 1 1 d . . . 
H5 H 0.769(3) 0.079(2) 0.3759(7) 0.023(4) Uiso 1 1 d . . . 
H6 H 0.165(3) -0.149(2) 0.3837(7) 0.020(4) Uiso 1 1 d . . . 
H9 H 0.656(3) -0.316(2) 0.3659(7) 0.018(4) Uiso 1 1 d . . . 
H10 H 1.220(3) -0.598(2) 0.3764(7) 0.020(4) Uiso 1 1 d . . . 
H11 H 0.774(3) -0.215(2) 0.2925(7) 0.017(4) Uiso 1 1 d . . . 
H12 H 1.331(3) -0.491(2) 0.3017(7) 0.015(4) Uiso 1 1 d . . . 
 
loop_ 
 _atom_site_aniso_label 
 _atom_site_aniso_U_11 
 _atom_site_aniso_U_22 
 _atom_site_aniso_U_33 
 _atom_site_aniso_U_23 
 _atom_site_aniso_U_13 
 _atom_site_aniso_U_12 
S1 0.0143(3) 0.0124(2) 0.0128(2) 0.00115(10) 0.00299(15) 0.00134(11) 
O1 0.0149(6) 0.0217(5) 0.0181(5) 0.0039(4) 0.0005(4) -0.0014(4) 
O2 0.0283(7) 0.0119(5) 0.0223(5) 0.0015(4) 0.0036(4) 0.0015(4) 
O3 0.0197(6) 0.0222(6) 0.0137(5) 0.0007(4) 0.0056(4) 0.0047(4) 
N1 0.0162(6) 0.0144(6) 0.0155(6) -0.0020(4) 0.0013(4) 0.0002(4) 
N2 0.0199(7) 0.0202(6) 0.0198(6) 0.0010(5) 0.0031(5) 0.0024(5) 
N3 0.0321(8) 0.0308(7) 0.0276(7) 0.0086(6) 0.0104(6) 0.0032(6) 
C1 0.0228(9) 0.0224(8) 0.0156(7) 0.0006(5) -0.0016(6) 0.0038(6) 
C2 0.0191(8) 0.0172(7) 0.0134(6) -0.0021(5) 0.0023(5) 0.0038(5) 
C3 0.0149(8) 0.0216(7) 0.0179(7) -0.0026(5) 0.0000(5) -0.0005(5) 
C4 0.0179(8) 0.0171(7) 0.0155(6) 0.0012(5) 0.0037(5) -0.0008(5) 
C5 0.0159(8) 0.0194(7) 0.0167(7) 0.0004(5) 0.0028(5) -0.0027(6) 
C6 0.0138(8) 0.0170(7) 0.0151(6) -0.0009(5) 0.0024(5) -0.0004(5) 
C7 0.0153(7) 0.0139(6) 0.0126(6) -0.0013(5) 0.0039(5) 0.0010(5) 
C8 0.0176(8) 0.0146(6) 0.0157(7) -0.0016(5) 0.0030(5) -0.0018(5) 
C9 0.0144(8) 0.0164(7) 0.0177(7) -0.0030(5) 0.0032(5) 0.0005(5) 
C10 0.0188(8) 0.0152(6) 0.0164(7) -0.0006(5) 0.0015(5) 0.0017(5) 
C11 0.0169(8) 0.0153(7) 0.0177(7) -0.0012(5) 0.0002(5) 0.0002(5) 
C12 0.0159(8) 0.0159(7) 0.0162(7) -0.0027(5) 0.0030(5) 0.0003(5) 
C13 0.0175(8) 0.0148(6) 0.0116(6) -0.0015(5) 0.0027(5) -0.0027(5) 
C14 0.0210(9) 0.0198(7) 0.0211(8) 0.0008(6) 0.0038(6) 0.0031(6) 
 
_geom_special_details 
; 
 All esds (except the esd in the dihedral angle between two l.s. planes) 
 are estimated using the full covariance matrix.  The cell esds are taken 
 into account individually in the estimation of esds in distances, angles 
 and torsion angles; correlations between esds in cell parameters are only 
 used when they are defined by crystal symmetry.  An approximate (isotropic) 
 treatment of cell esds is used for estimating esds involving l.s. planes. 
; 
 
loop_ 
 _geom_bond_atom_site_label_1 
 _geom_bond_atom_site_label_2 
 _geom_bond_distance 
 _geom_bond_site_symmetry_2 
 _geom_bond_publ_flag 
S1 O2 1.4545(11) . ? 
S1 O1 1.4553(12) . ? 
S1 O3 1.4619(10) . ? 
S1 C7 1.7778(15) . ? 
N1 N2 1.0944(17) . ? 
N1 C13 1.4172(17) . ? 
N3 C14 1.144(2) . ? 
C1 C2 1.508(2) . ? 
C2 C4 1.394(2) . ? 
C2 C3 1.398(2) . ? 
C3 C5 1.393(2) . ? 
C4 C6 1.392(2) . ? 
C5 C7 1.391(2) . ? 
C6 C7 1.3933(19) . ? 
C8 C10 1.394(2) . ? 
C8 C9 1.400(2) . ? 
C8 C14 1.449(2) . ? 
C9 C11 1.384(2) . ? 
C10 C12 1.390(2) . ? 
C11 C13 1.390(2) . ? 
C12 C13 1.387(2) . ? 
 
loop_ 
 _geom_angle_atom_site_label_1 
 _geom_angle_atom_site_label_2 
 _geom_angle_atom_site_label_3 
 _geom_angle 
 _geom_angle_site_symmetry_1 
 _geom_angle_site_symmetry_3 
 _geom_angle_publ_flag 
O2 S1 O1 112.98(6) . . ? 
O2 S1 O3 112.42(6) . . ? 
O1 S1 O3 112.55(6) . . ? 
O2 S1 C7 106.94(6) . . ? 
O1 S1 C7 105.92(7) . . ? 
O3 S1 C7 105.34(6) . . ? 
N2 N1 C13 176.85(14) . . ? 
C4 C2 C3 118.32(13) . . ? 
C4 C2 C1 120.93(14) . . ? 
C3 C2 C1 120.75(14) . . ? 
C5 C3 C2 121.28(15) . . ? 
C6 C4 C2 120.94(14) . . ? 
C7 C5 C3 119.53(14) . . ? 
C4 C6 C7 119.95(14) . . ? 
C5 C7 C6 119.97(13) . . ? 
C5 C7 S1 119.85(11) . . ? 
C6 C7 S1 120.16(12) . . ? 
C10 C8 C9 122.10(13) . . ? 
C10 C8 C14 119.81(14) . . ? 
C9 C8 C14 118.08(13) . . ? 
C11 C9 C8 119.92(13) . . ? 
C8 C10 C12 119.34(14) . . ? 
C9 C11 C13 115.90(13) . . ? 
C13 C12 C10 116.41(13) . . ? 
C12 C13 C11 126.32(13) . . ? 
C12 C13 N1 117.62(13) . . ? 
C11 C13 N1 116.06(12) . . ? 
N3 C14 C8 179.36(19) . . ? 
 
_diffrn_measured_fraction_theta_max    0.916 
_diffrn_reflns_theta_full              30.40 
_diffrn_measured_fraction_theta_full   0.916 
_refine_diff_density_max    0.307 
_refine_diff_density_min   -0.624 
_refine_diff_density_rms    0.072

#===END

 
data_15a
 
_audit_creation_method            SHELXL-97 
_chemical_name_systematic 
; 
 ? 
; 
_chemical_name_common             
'p-iodobenzenediazonium tosylate (15a)'  
_chemical_melting_point           ? 
_chemical_formula_moiety          'C6 H4 N2 I, C7 H7 O3 S' 
_chemical_formula_sum 
 'C13 H11 I N2 O3 S'
_chemical_formula_weight          402.20 
 
loop_ 
 _atom_type_symbol 
 _atom_type_description 
 _atom_type_scat_dispersion_real 
 _atom_type_scat_dispersion_imag 
 _atom_type_scat_source 
 'C'  'C'  -0.0020   0.0021 
 'International Tables Vol C Tables 4.2.6.8 and 6.1.1.4' 
 'H'  'H'   0.0000   0.0000 
 'International Tables Vol C Tables 4.2.6.8 and 6.1.1.4' 
 'N'  'N'  -0.0031   0.0043 
 'International Tables Vol C Tables 4.2.6.8 and 6.1.1.4' 
 'O'  'O'  -0.0042   0.0079 
 'International Tables Vol C Tables 4.2.6.8 and 6.1.1.4' 
 'S'  'S'   0.1265   0.1577 
 'International Tables Vol C Tables 4.2.6.8 and 6.1.1.4' 
 'I'  'I'  -0.6948   2.2434 
 'International Tables Vol C Tables 4.2.6.8 and 6.1.1.4' 
 
_symmetry_cell_setting            'Triclinic'
_symmetry_space_group_name_H-M    'P-1' 
 
loop_ 
 _symmetry_equiv_pos_as_xyz 
 'x, y, z' 
 '-x, -y, -z' 
 
_cell_length_a                    7.6780(15) 
_cell_length_b                    10.149(2) 
_cell_length_c                    18.657(4) 
_cell_angle_alpha                 77.15(3) 
_cell_angle_beta                  88.73(3) 
_cell_angle_gamma                 77.04(3) 
_cell_volume                      1380.7(5) 
_cell_formula_units_Z             4 
_cell_measurement_temperature     90(2) 
_cell_measurement_reflns_used     4411 
_cell_measurement_theta_min       2.93 
_cell_measurement_theta_max       30.35 
 
_exptl_crystal_description        block 
_exptl_crystal_colour              colorless
_exptl_crystal_size_max           0.12 
_exptl_crystal_size_mid           0.10 
_exptl_crystal_size_min           0.05 
_exptl_crystal_density_meas       ? 
_exptl_crystal_density_diffrn     1.935 
_exptl_crystal_density_method     'not measured' 
_exptl_crystal_F_000              784 
_exptl_absorpt_coefficient_mu     3.367 
_exptl_absorpt_correction_type    'empirical' 
_exptl_absorpt_correction_T_min   0.6881 
_exptl_absorpt_correction_T_max   0.8497 
_exptl_absorpt_process_details    'HKL2000' 
 
_exptl_special_details 
; 
 ? 
; 
 
_diffrn_ambient_temperature       90(2) 
_diffrn_radiation_wavelength      0.80000 
_diffrn_radiation_type            'synchrotron radiation' 
_diffrn_radiation_source          'PAL_4A'
_diffrn_radiation_monochromator   graphite 
_diffrn_measurement_device_type   'Quantum 210'  
_diffrn_measurement_method        '\j-scan' 
_diffrn_detector_area_resol_mean  ? 
_diffrn_standards_number          ? 
_diffrn_standards_interval_count  ? 
_diffrn_standards_interval_time   ? 
_diffrn_standards_decay_%         ? 
_diffrn_reflns_number             4411 
_diffrn_reflns_av_R_equivalents   0.0000 
_diffrn_reflns_av_sigmaI/netI     0.0270 
_diffrn_reflns_limit_h_min        0 
_diffrn_reflns_limit_h_max        8 
_diffrn_reflns_limit_k_min        -12 
_diffrn_reflns_limit_k_max        12 
_diffrn_reflns_limit_l_min        -23 
_diffrn_reflns_limit_l_max        23 
_diffrn_reflns_theta_min          2.93 
_diffrn_reflns_theta_max          30.35 
_reflns_number_total              4411 
_reflns_number_gt                 4189 
_reflns_threshold_expression      >2sigma(I) 
 
_computing_data_collection        'Quantum 210' 
_computing_cell_refinement        'HKL2000' 
_computing_data_reduction         'HKL2000' 
_computing_structure_solution     'SHELXS-97 (Sheldrick, 1990)' 
_computing_structure_refinement   'SHELXL-97 (Sheldrick, 1997)' 
_computing_molecular_graphics     'Materials Studio 4.1' 
_computing_publication_material   'Materials Studio 4.1'
 
_refine_special_details 
; 
 Refinement of F^2^ against ALL reflections.  The weighted R-factor wR and 
 goodness of fit S are based on F^2^, conventional R-factors R are based 
 on F, with F set to zero for negative F^2^. The threshold expression of 
 F^2^ > 2sigma(F^2^) is used only for calculating R-factors(gt) etc. and is 
 not relevant to the choice of reflections for refinement.  R-factors based 
 on F^2^ are statistically about twice as large as those based on F, and R- 
 factors based on ALL data will be even larger. 
; 
 
_refine_ls_structure_factor_coef  Fsqd  
_refine_ls_matrix_type            full 
_refine_ls_weighting_scheme       calc  
_refine_ls_weighting_details 
 'calc w=1/[\s^2^(Fo^2^)+(0.1958P)^2^+3.6121P] where P=(Fo^2^+2Fc^2^)/3' 
_atom_sites_solution_primary      direct 
_atom_sites_solution_secondary    difmap 
_atom_sites_solution_hydrogens    geom 
_refine_ls_hydrogen_treatment     constr 
_refine_ls_extinction_method      SHELXL 
_refine_ls_extinction_coef        0.017(2) 
_refine_ls_extinction_expression 
 'Fc^*^=kFc[1+0.001xFc^2^\l^3^/sin(2\q)]^-1/4^' 
_refine_ls_number_reflns          4411 
_refine_ls_number_parameters      362 
_refine_ls_number_restraints      0 
_refine_ls_R_factor_all           0.0814 
_refine_ls_R_factor_gt            0.0793 
_refine_ls_wR_factor_ref          0.2253 
_refine_ls_wR_factor_gt           0.2202 
_refine_ls_goodness_of_fit_ref    1.041 
_refine_ls_restrained_S_all       1.041 
_refine_ls_shift/su_max           0.000 
_refine_ls_shift/su_mean          0.000 
 
loop_ 
 _atom_site_label 
 _atom_site_type_symbol 
 _atom_site_fract_x 
 _atom_site_fract_y 
 _atom_site_fract_z 
 _atom_site_U_iso_or_equiv 
 _atom_site_adp_type 
 _atom_site_occupancy 
 _atom_site_symmetry_multiplicity 
 _atom_site_calc_flag 
 _atom_site_refinement_flags 
 _atom_site_disorder_assembly 
 _atom_site_disorder_group 
I1 I 0.89096(8) 0.41768(4) 0.11180(2) 0.0244(3) Uani 1 1 d . . . 
I2 I 0.04383(7) 0.58614(4) 0.38868(2) 0.0225(3) Uani 1 1 d . . . 
S1 S 0.2565(3) 1.04661(17) 0.12787(9) 0.0250(5) Uani 1 1 d . . . 
S2 S 0.7973(3) -0.04562(17) 0.36703(9) 0.0255(5) Uani 1 1 d . . . 
O6 O 0.8450(13) -0.0398(6) 0.2906(3) 0.059(3) Uani 1 1 d . . . 
O5 O 0.6454(10) -0.1052(5) 0.3886(4) 0.0507(18) Uani 1 1 d . . . 
O4 O 0.9503(8) -0.1105(5) 0.4172(3) 0.0301(13) Uani 1 1 d . . . 
O3 O 0.3734(8) 1.1022(5) 0.0730(2) 0.0289(11) Uani 1 1 d . . . 
O2 O 0.0667(9) 1.1104(5) 0.1105(3) 0.0384(14) Uani 1 1 d . . . 
O1 O 0.3112(9) 1.0444(5) 0.2025(3) 0.0389(15) Uani 1 1 d . . . 
N1 N 0.7234(9) 1.0237(6) 0.1471(3) 0.0248(14) Uani 1 1 d . . . 
N2 N 0.6941(10) 1.1338(6) 0.1515(3) 0.0314(16) Uani 1 1 d . . . 
N4 N 0.2683(9) -0.0233(6) 0.3549(3) 0.0237(14) Uani 1 1 d . . . 
N3 N 0.3054(9) -0.1301(6) 0.3478(3) 0.0280(15) Uani 1 1 d . . . 
C1 C 0.8245(11) 0.6234(7) 0.1233(4) 0.0224(15) Uani 1 1 d . . . 
C2 C 0.8728(11) 0.7255(7) 0.0670(4) 0.0281(17) Uani 1 1 d . . . 
H2 H 0.9278 0.7013 0.0241 0.034 Uiso 1 1 calc R . . 
C3 C 0.8390(11) 0.8624(7) 0.0748(4) 0.0250(15) Uani 1 1 d . . . 
H3 H 0.8687 0.9342 0.0378 0.030 Uiso 1 1 calc R . . 
C4 C 0.7597(10) 0.8885(7) 0.1396(3) 0.0236(15) Uani 1 1 d . . . 
C5 C 0.7118(11) 0.7875(7) 0.1961(3) 0.0279(16) Uani 1 1 d . . . 
H5 H 0.6579 0.8111 0.2392 0.034 Uiso 1 1 calc R . . 
C6 C 0.7448(12) 0.6553(7) 0.1873(3) 0.0277(16) Uani 1 1 d . . . 
H6 H 0.7138 0.5844 0.2245 0.033 Uiso 1 1 calc R . . 
C7 C 0.1224(10) 0.3779(6) 0.3789(3) 0.0210(14) Uani 1 1 d . . . 
C8 C 0.2223(11) 0.2800(7) 0.4350(3) 0.0237(15) Uani 1 1 d . . . 
H8 H 0.2564 0.3055 0.4777 0.028 Uiso 1 1 calc R . . 
C9 C 0.2722(11) 0.1430(7) 0.4277(3) 0.0251(16) Uani 1 1 d . . . 
H9 H 0.3400 0.0723 0.4653 0.030 Uiso 1 1 calc R . . 
C10 C 0.2181(11) 0.1135(7) 0.3627(3) 0.0234(15) Uani 1 1 d . . . 
C11 C 0.1144(10) 0.2102(6) 0.3065(3) 0.0225(14) Uani 1 1 d . . . 
H11 H 0.0790 0.1850 0.2639 0.027 Uiso 1 1 calc R . . 
C12 C 0.0648(10) 0.3457(6) 0.3156(3) 0.0222(14) Uani 1 1 d . . . 
H12 H -0.0076 0.4159 0.2791 0.027 Uiso 1 1 calc R . . 
C13 C 0.2806(11) 0.8695(7) 0.1245(4) 0.0249(16) Uani 1 1 d . . . 
C14 C 0.2203(10) 0.7792(7) 0.1817(3) 0.0225(15) Uani 1 1 d . . . 
H14 H 0.1616 0.8129 0.2216 0.027 Uiso 1 1 calc R . . 
C15 C 0.2449(10) 0.6425(7) 0.1809(3) 0.0233(14) Uani 1 1 d . . . 
H15 H 0.2031 0.5824 0.2207 0.028 Uiso 1 1 calc R . . 
C16 C 0.3309(12) 0.5870(7) 0.1227(4) 0.0277(17) Uani 1 1 d . . . 
C17 C 0.3900(11) 0.6812(7) 0.0652(4) 0.0277(17) Uani 1 1 d . . . 
H17 H 0.4468 0.6486 0.0247 0.033 Uiso 1 1 calc R . . 
C18 C 0.3672(11) 0.8208(7) 0.0663(3) 0.0263(16) Uani 1 1 d . . . 
H18 H 0.4105 0.8821 0.0275 0.032 Uiso 1 1 calc R . . 
C19 C 0.3671(13) 0.4358(7) 0.1223(5) 0.033(2) Uani 1 1 d . . . 
H19A H 0.3185 0.3859 0.1664 0.050 Uiso 1 1 calc R . . 
H19B H 0.4964 0.3989 0.1217 0.050 Uiso 1 1 calc R . . 
H19C H 0.3101 0.4238 0.0784 0.050 Uiso 1 1 calc R . . 
C20 C 0.7270(11) 0.1293(7) 0.3751(3) 0.0239(15) Uani 1 1 d . . . 
C21 C 0.7822(11) 0.1707(7) 0.4353(3) 0.0219(15) Uani 1 1 d . . . 
H21 H 0.8579 0.1053 0.4726 0.026 Uiso 1 1 calc R . . 
C22 C 0.7260(11) 0.3096(7) 0.4410(4) 0.0273(16) Uani 1 1 d . . . 
H22 H 0.7628 0.3372 0.4826 0.033 Uiso 1 1 calc R . . 
C23 C 0.6167(12) 0.4075(7) 0.3862(4) 0.0299(17) Uani 1 1 d . . . 
C24 C 0.5667(11) 0.3629(7) 0.3242(3) 0.0269(15) Uani 1 1 d . . . 
H24 H 0.4956 0.4283 0.2854 0.032 Uiso 1 1 calc R . . 
C25 C 0.6199(11) 0.2262(7) 0.3194(3) 0.0248(15) Uani 1 1 d . . . 
H25 H 0.5835 0.1978 0.2780 0.030 Uiso 1 1 calc R . . 
C26 C 0.5554(13) 0.5575(9) 0.3907(5) 0.041(2) Uani 1 1 d . . . 
H26A H 0.4800 0.6091 0.3474 0.061 Uiso 1 1 calc R . . 
H26B H 0.6597 0.5974 0.3925 0.061 Uiso 1 1 calc R . . 
H26C H 0.4865 0.5632 0.4352 0.061 Uiso 1 1 calc R . . 
 
loop_ 
 _atom_site_aniso_label 
 _atom_site_aniso_U_11 
 _atom_site_aniso_U_22 
 _atom_site_aniso_U_33 
 _atom_site_aniso_U_23 
 _atom_site_aniso_U_13 
 _atom_site_aniso_U_12 
I1 0.0278(6) 0.0173(3) 0.0281(3) -0.0060(2) 0.0003(2) -0.0038(2) 
I2 0.0250(5) 0.0160(3) 0.0261(3) -0.0056(2) 0.0023(2) -0.0030(2) 
S1 0.0312(13) 0.0173(8) 0.0238(8) -0.0038(6) 0.0045(7) -0.0006(7) 
S2 0.0347(13) 0.0154(8) 0.0257(8) -0.0052(6) -0.0046(7) -0.0032(7) 
O6 0.119(8) 0.024(3) 0.024(2) -0.009(2) -0.005(3) 0.013(3) 
O5 0.038(5) 0.019(3) 0.093(5) -0.006(3) -0.019(4) -0.007(3) 
O4 0.035(4) 0.013(2) 0.035(3) -0.0026(18) -0.004(2) 0.006(2) 
O3 0.026(3) 0.026(2) 0.032(2) 0.0018(19) 0.006(2) -0.009(2) 
O2 0.037(4) 0.020(2) 0.051(3) -0.002(2) 0.009(3) 0.003(2) 
O1 0.064(5) 0.025(2) 0.028(2) -0.0086(19) 0.003(2) -0.009(3) 
N1 0.025(4) 0.025(3) 0.025(3) -0.006(2) 0.004(2) -0.007(3) 
N2 0.037(5) 0.020(3) 0.035(3) -0.006(2) 0.002(3) -0.004(3) 
N4 0.022(4) 0.022(3) 0.026(3) -0.004(2) 0.003(2) -0.005(2) 
N3 0.028(4) 0.017(3) 0.038(3) -0.007(2) -0.002(3) -0.003(2) 
C1 0.018(4) 0.017(3) 0.027(3) -0.001(2) -0.001(3) 0.002(3) 
C2 0.029(5) 0.024(3) 0.029(3) -0.003(3) 0.001(3) -0.002(3) 
C3 0.025(5) 0.020(3) 0.028(3) -0.002(2) -0.001(3) -0.002(3) 
C4 0.024(5) 0.018(3) 0.025(3) -0.001(2) -0.003(3) 0.001(3) 
C5 0.030(5) 0.027(3) 0.023(3) -0.008(2) 0.005(3) 0.000(3) 
C6 0.038(5) 0.022(3) 0.024(3) 0.000(2) 0.003(3) -0.012(3) 
C7 0.021(4) 0.013(3) 0.025(3) -0.002(2) 0.003(2) 0.002(2) 
C8 0.023(5) 0.023(3) 0.024(3) -0.006(2) -0.001(3) -0.003(3) 
C9 0.024(5) 0.023(3) 0.023(3) 0.000(2) 0.002(3) -0.001(3) 
C10 0.032(5) 0.015(3) 0.024(3) -0.004(2) 0.000(3) -0.007(3) 
C11 0.022(4) 0.016(3) 0.028(3) -0.005(2) -0.002(3) -0.001(3) 
C12 0.024(4) 0.014(3) 0.025(3) -0.001(2) -0.003(3) -0.001(3) 
C13 0.025(5) 0.018(3) 0.026(3) -0.001(2) -0.004(3) 0.004(3) 
C14 0.020(5) 0.023(3) 0.025(3) -0.008(2) 0.004(3) -0.004(3) 
C15 0.016(4) 0.024(3) 0.026(3) 0.001(2) 0.000(2) -0.002(3) 
C16 0.028(5) 0.022(3) 0.032(3) -0.009(3) -0.006(3) -0.002(3) 
C17 0.028(5) 0.023(3) 0.028(3) -0.007(2) 0.003(3) 0.004(3) 
C18 0.030(5) 0.026(3) 0.020(3) -0.002(2) -0.003(3) -0.003(3) 
C19 0.036(6) 0.013(3) 0.051(4) -0.011(3) 0.010(4) -0.001(3) 
C20 0.024(5) 0.019(3) 0.026(3) 0.000(2) 0.000(3) -0.003(3) 
C21 0.026(5) 0.021(3) 0.020(2) -0.007(2) 0.006(3) -0.007(3) 
C22 0.023(5) 0.030(3) 0.033(3) -0.013(3) 0.004(3) -0.008(3) 
C23 0.021(5) 0.026(4) 0.045(4) -0.011(3) 0.013(3) -0.007(3) 
C24 0.019(5) 0.024(3) 0.033(3) 0.000(2) 0.005(3) -0.001(3) 
C25 0.026(5) 0.026(3) 0.020(3) -0.002(2) 0.003(3) -0.005(3) 
C26 0.029(6) 0.026(4) 0.072(6) -0.025(4) 0.011(4) -0.004(3) 
 
_geom_special_details 
; 
 All esds (except the esd in the dihedral angle between two l.s. planes) 
 are estimated using the full covariance matrix.  The cell esds are taken 
 into account individually in the estimation of esds in distances, angles 
 and torsion angles; correlations between esds in cell parameters are only 
 used when they are defined by crystal symmetry.  An approximate (isotropic) 
 treatment of cell esds is used for estimating esds involving l.s. planes. 
; 
 
loop_ 
 _geom_bond_atom_site_label_1 
 _geom_bond_atom_site_label_2 
 _geom_bond_distance 
 _geom_bond_site_symmetry_2 
 _geom_bond_publ_flag 
I1 C1 2.094(7) . ? 
I2 C7 2.111(6) . ? 
S1 O3 1.449(5) . ? 
S1 O1 1.457(5) . ? 
S1 O2 1.467(7) . ? 
S1 C13 1.781(7) . ? 
S2 O5 1.440(7) . ? 
S2 O6 1.457(6) . ? 
S2 O4 1.455(6) . ? 
S2 C20 1.775(7) . ? 
N1 N2 1.111(8) . ? 
N1 C4 1.375(9) . ? 
N4 N3 1.094(8) . ? 
N4 C10 1.394(8) . ? 
C1 C6 1.398(10) . ? 
C1 C2 1.409(10) . ? 
C2 C3 1.396(9) . ? 
C3 C4 1.393(10) . ? 
C4 C5 1.403(9) . ? 
C5 C6 1.355(9) . ? 
C7 C8 1.378(9) . ? 
C7 C12 1.400(9) . ? 
C8 C9 1.393(9) . ? 
C9 C10 1.405(9) . ? 
C10 C11 1.387(9) . ? 
C11 C12 1.390(8) . ? 
C13 C18 1.387(10) . ? 
C13 C14 1.388(9) . ? 
C14 C15 1.360(9) . ? 
C15 C16 1.416(10) . ? 
C16 C17 1.409(11) . ? 
C16 C19 1.499(9) . ? 
C17 C18 1.393(9) . ? 
C20 C21 1.390(9) . ? 
C20 C25 1.394(9) . ? 
C21 C22 1.405(9) . ? 
C22 C23 1.395(11) . ? 
C23 C24 1.423(11) . ? 
C23 C26 1.510(11) . ? 
C24 C25 1.378(9) . ? 
 
loop_ 
 _geom_angle_atom_site_label_1 
 _geom_angle_atom_site_label_2 
 _geom_angle_atom_site_label_3 
 _geom_angle 
 _geom_angle_site_symmetry_1 
 _geom_angle_site_symmetry_3 
 _geom_angle_publ_flag 
O3 S1 O1 112.7(4) . . ? 
O3 S1 O2 112.9(3) . . ? 
O1 S1 O2 113.6(4) . . ? 
O3 S1 C13 106.3(3) . . ? 
O1 S1 C13 105.4(3) . . ? 
O2 S1 C13 105.1(4) . . ? 
O5 S2 O6 114.4(5) . . ? 
O5 S2 O4 111.8(4) . . ? 
O6 S2 O4 111.9(4) . . ? 
O5 S2 C20 104.6(4) . . ? 
O6 S2 C20 106.0(3) . . ? 
O4 S2 C20 107.5(3) . . ? 
N2 N1 C4 178.5(6) . . ? 
N3 N4 C10 178.8(7) . . ? 
C6 C1 C2 121.8(6) . . ? 
C6 C1 I1 120.2(5) . . ? 
C2 C1 I1 117.8(5) . . ? 
C3 C2 C1 119.2(7) . . ? 
C4 C3 C2 116.7(6) . . ? 
N1 C4 C3 116.9(6) . . ? 
N1 C4 C5 118.6(6) . . ? 
C3 C4 C5 124.5(6) . . ? 
C6 C5 C4 118.0(6) . . ? 
C5 C6 C1 119.8(6) . . ? 
C8 C7 C12 123.1(6) . . ? 
C8 C7 I2 119.5(5) . . ? 
C12 C7 I2 117.4(4) . . ? 
C7 C8 C9 118.7(6) . . ? 
C8 C9 C10 117.4(6) . . ? 
N4 C10 C11 117.7(6) . . ? 
N4 C10 C9 117.7(6) . . ? 
C11 C10 C9 124.6(6) . . ? 
C12 C11 C10 116.8(6) . . ? 
C11 C12 C7 119.4(6) . . ? 
C18 C13 C14 120.2(6) . . ? 
C18 C13 S1 119.8(5) . . ? 
C14 C13 S1 120.0(5) . . ? 
C15 C14 C13 120.3(6) . . ? 
C14 C15 C16 122.1(6) . . ? 
C15 C16 C17 116.4(6) . . ? 
C15 C16 C19 123.1(7) . . ? 
C17 C16 C19 120.4(7) . . ? 
C18 C17 C16 121.6(6) . . ? 
C13 C18 C17 119.3(6) . . ? 
C21 C20 C25 120.0(6) . . ? 
C21 C20 S2 120.5(5) . . ? 
C25 C20 S2 119.5(5) . . ? 
C20 C21 C22 119.9(6) . . ? 
C23 C22 C21 120.9(6) . . ? 
C22 C23 C24 118.0(6) . . ? 
C22 C23 C26 121.9(7) . . ? 
C24 C23 C26 120.1(7) . . ? 
C25 C24 C23 121.0(6) . . ? 
C24 C25 C20 120.2(6) . . ? 
 
_diffrn_measured_fraction_theta_max    0.755 
_diffrn_reflns_theta_full              30.35 
_diffrn_measured_fraction_theta_full   0.755 
_refine_diff_density_max    1.844 
_refine_diff_density_min   -1.998 
_refine_diff_density_rms    0.346 

#===END

 
data_9a
 
_audit_creation_method            SHELXL-97 
_chemical_name_systematic 
; 
 ? 
; 
_chemical_name_common         
'o-nitrobenzenediazonium tosylate (9a)' 
_chemical_melting_point           ? 
_chemical_formula_moiety          'C6 H4 N3 O2, C7 H7 O3 S' 
_chemical_formula_sum             'C13 H11 N3 O5 S' 
_chemical_formula_weight          321.31 
 
loop_ 
 _atom_type_symbol 
 _atom_type_description 
 _atom_type_scat_dispersion_real 
 _atom_type_scat_dispersion_imag 
 _atom_type_scat_source 
 'C'  'C'  -0.0020   0.0021 
 'International Tables Vol C Tables 4.2.6.8 and 6.1.1.4' 
 'H'  'H'   0.0000   0.0000 
 'International Tables Vol C Tables 4.2.6.8 and 6.1.1.4' 
 'N'  'N'  -0.0031   0.0043 
 'International Tables Vol C Tables 4.2.6.8 and 6.1.1.4' 
 'O'  'O'  -0.0042   0.0079 
 'International Tables Vol C Tables 4.2.6.8 and 6.1.1.4' 
 'S'  'S'   0.1265   0.1577 
 'International Tables Vol C Tables 4.2.6.8 and 6.1.1.4' 
 
_symmetry_cell_setting            Triclinic 
_symmetry_space_group_name_H-M    'P-1'
 
loop_ 
 _symmetry_equiv_pos_as_xyz 
 'x, y, z' 
 '-x, -y, -z' 
 
_cell_length_a                    7.5090(15) 
_cell_length_b                    7.5460(15) 
_cell_length_c                    13.672(3) 
_cell_angle_alpha                 78.64(3) 
_cell_angle_beta                  75.67(3) 
_cell_angle_gamma                 75.60(3) 
_cell_volume                      719.4(2) 
_cell_formula_units_Z             2 
_cell_measurement_temperature     90(2) 
_cell_measurement_reflns_used     2571 
_cell_measurement_theta_min       3.22  
_cell_measurement_theta_max       30.35  
 
_exptl_crystal_description        block
_exptl_crystal_colour             colorless
_exptl_crystal_size_max           0.11 
_exptl_crystal_size_mid           0.05 
_exptl_crystal_size_min           0.05 
_exptl_crystal_density_meas       ? 
_exptl_crystal_density_diffrn     1.483 
_exptl_crystal_density_method     'not measured' 
_exptl_crystal_F_000              332 
_exptl_absorpt_coefficient_mu     0.343 
_exptl_absorpt_correction_type    'semi-empirical' 
_exptl_absorpt_correction_T_min   0.9633 
_exptl_absorpt_correction_T_max   0.9831 
_exptl_absorpt_process_details    'HKL2000' 
 
_exptl_special_details 
; 
 ? 
; 
 
_diffrn_ambient_temperature       90(2) 
_diffrn_radiation_wavelength      0.80000 
_diffrn_radiation_type            'synchrotron radiation' 
_diffrn_radiation_source          'PAL_4A' 
_diffrn_radiation_monochromator   graphite
_diffrn_measurement_device_type   'Quantum 210' 
_diffrn_measurement_method        '\j-scan' 
_diffrn_detector_area_resol_mean  ? 
_diffrn_standards_number          ? 
_diffrn_standards_interval_count  ? 
_diffrn_standards_interval_time   ? 
_diffrn_standards_decay_%         ? 
_diffrn_reflns_number             2571 
_diffrn_reflns_av_R_equivalents   0.0000 
_diffrn_reflns_av_sigmaI/netI     0.0194 
_diffrn_reflns_limit_h_min        -9 
_diffrn_reflns_limit_h_max        8 
_diffrn_reflns_limit_k_min        -9 
_diffrn_reflns_limit_k_max        0 
_diffrn_reflns_limit_l_min        -17 
_diffrn_reflns_limit_l_max        16 
_diffrn_reflns_theta_min          3.22 
_diffrn_reflns_theta_max          30.35 
_reflns_number_total              2571 
_reflns_number_gt                 2511 
_reflns_threshold_expression      >2sigma(I) 
 
_computing_data_collection        'Quantum 210' 
_computing_cell_refinement        'HKL2000' 
_computing_data_reduction         'HKL2000' 
_computing_structure_solution     'SHELXS-97 (Sheldrick, 1990)' 
_computing_structure_refinement   'SHELXL-97 (Sheldrick, 1997)' 
_computing_molecular_graphics     'Materials Studio 4.1' 
_computing_publication_material   'Materials Studio 4.1' 
 
_refine_special_details 
; 
 Refinement of F^2^ against ALL reflections.  The weighted R-factor wR and 
 goodness of fit S are based on F^2^, conventional R-factors R are based 
 on F, with F set to zero for negative F^2^. The threshold expression of 
 F^2^ > 2sigma(F^2^) is used only for calculating R-factors(gt) etc. and is 
 not relevant to the choice of reflections for refinement.  R-factors based 
 on F^2^ are statistically about twice as large as those based on F, and R- 
 factors based on ALL data will be even larger. 
; 
 
_refine_ls_structure_factor_coef  Fsqd  
_refine_ls_matrix_type            full 
_refine_ls_weighting_scheme       calc  
_refine_ls_weighting_details 
 'calc w=1/[\s^2^(Fo^2^)+(0.0958P)^2^+0.2094P] where P=(Fo^2^+2Fc^2^)/3' 
_atom_sites_solution_primary      direct 
_atom_sites_solution_secondary    difmap 
_atom_sites_solution_hydrogens    geom 
_refine_ls_hydrogen_treatment     refall 
_refine_ls_extinction_method      none 
_refine_ls_extinction_coef        ? 
_refine_ls_number_reflns          2571 
_refine_ls_number_parameters      243 
_refine_ls_number_restraints      0 
_refine_ls_R_factor_all           0.0398 
_refine_ls_R_factor_gt            0.0392 
_refine_ls_wR_factor_ref          0.1231 
_refine_ls_wR_factor_gt           0.1220 
_refine_ls_goodness_of_fit_ref    1.055 
_refine_ls_restrained_S_all       1.055 
_refine_ls_shift/su_max           0.000 
_refine_ls_shift/su_mean          0.000 
 
loop_ 
 _atom_site_label 
 _atom_site_type_symbol 
 _atom_site_fract_x 
 _atom_site_fract_y 
 _atom_site_fract_z 
 _atom_site_U_iso_or_equiv 
 _atom_site_adp_type 
 _atom_site_occupancy 
 _atom_site_symmetry_multiplicity 
 _atom_site_calc_flag 
 _atom_site_refinement_flags 
 _atom_site_disorder_assembly 
 _atom_site_disorder_group 
S1 S 0.27816(5) 0.45109(5) 0.34868(2) 0.01919(17) Uani 1 1 d . . . 
O1 O 0.9129(2) 0.5710(2) -0.09508(9) 0.0351(3) Uani 1 1 d . . . 
O2 O 1.14230(19) 0.37217(17) -0.17092(9) 0.0306(3) Uani 1 1 d . . . 
O3 O 0.13433(16) 0.57989(15) 0.30097(8) 0.0222(3) Uani 1 1 d . . . 
O4 O 0.2019(2) 0.31597(17) 0.42900(9) 0.0313(3) Uani 1 1 d . . . 
O5 O 0.39832(17) 0.54397(19) 0.38021(10) 0.0324(3) Uani 1 1 d . . . 
N1 N 1.0405(2) 0.5267(2) -0.16643(10) 0.0247(3) Uani 1 1 d . . . 
N2 N 1.24354(19) 0.44291(18) -0.36611(10) 0.0210(3) Uani 1 1 d . . . 
N3 N 1.2998(2) 0.3035(2) -0.38661(11) 0.0270(3) Uani 1 1 d . . . 
C1 C 1.1795(2) 0.6274(2) -0.34884(11) 0.0185(3) Uani 1 1 d . . . 
C2 C 1.2163(2) 0.7611(2) -0.43198(11) 0.0213(4) Uani 1 1 d . . . 
C3 C 1.1487(3) 0.9447(2) -0.41758(12) 0.0241(4) Uani 1 1 d . . . 
C4 C 1.0438(3) 0.9906(2) -0.32374(13) 0.0260(4) Uani 1 1 d . . . 
C5 C 1.0080(2) 0.8534(2) -0.24142(12) 0.0243(4) Uani 1 1 d . . . 
C6 C 1.0765(2) 0.6710(2) -0.25311(11) 0.0201(3) Uani 1 1 d . . . 
C7 C 0.7471(3) 0.0360(3) 0.00023(14) 0.0380(5) Uani 1 1 d . . . 
C8 C 0.6388(2) 0.1361(3) 0.08960(12) 0.0272(4) Uani 1 1 d . . . 
C9 C 0.6197(3) 0.3258(3) 0.08203(12) 0.0274(4) Uani 1 1 d . . . 
C10 C 0.5119(2) 0.4219(2) 0.16142(12) 0.0240(4) Uani 1 1 d . . . 
C11 C 0.4253(2) 0.3249(2) 0.25072(11) 0.0193(3) Uani 1 1 d . . . 
C12 C 0.4473(2) 0.1343(2) 0.26076(12) 0.0234(4) Uani 1 1 d . . . 
C13 C 0.5532(3) 0.0410(2) 0.17983(13) 0.0276(4) Uani 1 1 d . . . 
H2 H 1.279(3) 0.727(3) -0.4943(17) 0.031(5) Uiso 1 1 d . . . 
H3 H 1.166(3) 1.036(3) -0.4700(17) 0.032(5) Uiso 1 1 d . . . 
H4 H 1.001(4) 1.114(4) -0.3140(18) 0.044(6) Uiso 1 1 d . . . 
H5 H 0.938(3) 0.880(3) -0.1729(16) 0.033(5) Uiso 1 1 d . . . 
H7A H 0.668(4) 0.043(4) -0.045(2) 0.065(8) Uiso 1 1 d . . . 
H7B H 0.817(4) -0.077(4) 0.022(2) 0.059(8) Uiso 1 1 d . . . 
H7C H 0.835(4) 0.116(4) -0.049(2) 0.053(7) Uiso 1 1 d . . . 
H9 H 0.680(3) 0.393(3) 0.0194(16) 0.031(5) Uiso 1 1 d . . . 
H10 H 0.497(3) 0.557(3) 0.1523(14) 0.020(4) Uiso 1 1 d . . . 
H12 H 0.393(3) 0.063(3) 0.3243(15) 0.027(5) Uiso 1 1 d . . . 
H13 H 0.565(3) -0.095(3) 0.1901(16) 0.034(5) Uiso 1 1 d . . . 
 
loop_ 
 _atom_site_aniso_label 
 _atom_site_aniso_U_11 
 _atom_site_aniso_U_22 
 _atom_site_aniso_U_33 
 _atom_site_aniso_U_23 
 _atom_site_aniso_U_13 
 _atom_site_aniso_U_12 
S1 0.0177(3) 0.0201(2) 0.0194(2) -0.00649(15) -0.00121(16) -0.00296(18) 
O1 0.0362(8) 0.0449(8) 0.0210(6) -0.0031(5) 0.0048(5) -0.0148(7) 
O2 0.0327(8) 0.0245(6) 0.0332(6) 0.0044(5) -0.0106(5) -0.0064(6) 
O3 0.0177(6) 0.0202(5) 0.0278(5) -0.0052(4) -0.0045(5) -0.0010(5) 
O4 0.0365(8) 0.0275(6) 0.0214(5) -0.0012(5) 0.0044(5) -0.0032(6) 
O5 0.0214(7) 0.0422(7) 0.0400(7) -0.0253(6) -0.0051(5) -0.0048(6) 
N1 0.0253(8) 0.0288(7) 0.0214(6) -0.0005(5) -0.0056(5) -0.0102(7) 
N2 0.0166(7) 0.0220(7) 0.0256(6) -0.0054(5) -0.0025(5) -0.0063(6) 
N3 0.0233(8) 0.0231(7) 0.0357(7) -0.0095(6) -0.0036(6) -0.0053(6) 
C1 0.0156(8) 0.0173(7) 0.0231(7) -0.0056(5) -0.0029(6) -0.0035(6) 
C2 0.0195(8) 0.0252(8) 0.0206(7) -0.0054(6) -0.0018(6) -0.0082(7) 
C3 0.0265(10) 0.0212(7) 0.0258(7) 0.0014(6) -0.0061(6) -0.0106(7) 
C4 0.0248(9) 0.0195(7) 0.0352(8) -0.0082(6) -0.0057(7) -0.0045(7) 
C5 0.0219(9) 0.0259(8) 0.0252(7) -0.0100(6) -0.0005(6) -0.0049(7) 
C6 0.0180(8) 0.0229(8) 0.0199(7) -0.0025(6) -0.0031(6) -0.0066(7) 
C7 0.0305(12) 0.0523(13) 0.0296(9) -0.0210(9) -0.0048(8) 0.0045(11) 
C8 0.0200(9) 0.0376(9) 0.0234(7) -0.0120(7) -0.0061(6) 0.0025(8) 
C9 0.0222(9) 0.0396(9) 0.0194(7) -0.0036(6) -0.0024(6) -0.0068(8) 
C10 0.0225(9) 0.0263(8) 0.0233(7) -0.0035(6) -0.0038(6) -0.0065(7) 
C11 0.0177(8) 0.0218(7) 0.0188(7) -0.0058(6) -0.0042(6) -0.0024(7) 
C12 0.0246(9) 0.0221(7) 0.0221(7) -0.0037(6) -0.0047(6) -0.0020(7) 
C13 0.0283(10) 0.0253(8) 0.0290(8) -0.0099(6) -0.0093(7) 0.0027(8) 
 
_geom_special_details 
; 
 All esds (except the esd in the dihedral angle between two l.s. planes) 
 are estimated using the full covariance matrix.  The cell esds are taken 
 into account individually in the estimation of esds in distances, angles 
 and torsion angles; correlations between esds in cell parameters are only 
 used when they are defined by crystal symmetry.  An approximate (isotropic) 
 treatment of cell esds is used for estimating esds involving l.s. planes. 
; 
 
loop_ 
 _geom_bond_atom_site_label_1 
 _geom_bond_atom_site_label_2 
 _geom_bond_distance 
 _geom_bond_site_symmetry_2 
 _geom_bond_publ_flag 
S1 O4 1.4532(13) . ? 
S1 O3 1.4537(14) . ? 
S1 O5 1.4551(12) . ? 
S1 C11 1.7796(16) . ? 
O1 N1 1.220(2) . ? 
O2 N1 1.229(2) . ? 
N1 C6 1.4636(19) . ? 
N2 N3 1.095(2) . ? 
N2 C1 1.402(2) . ? 
C1 C2 1.385(2) . ? 
C1 C6 1.401(2) . ? 
C2 C3 1.387(2) . ? 
C3 C4 1.388(2) . ? 
C4 C5 1.393(2) . ? 
C5 C6 1.371(2) . ? 
C7 C8 1.513(2) . ? 
C8 C9 1.389(3) . ? 
C8 C13 1.392(2) . ? 
C9 C10 1.393(2) . ? 
C10 C11 1.393(2) . ? 
C11 C12 1.389(2) . ? 
C12 C13 1.395(2) . ? 
 
loop_ 
 _geom_angle_atom_site_label_1 
 _geom_angle_atom_site_label_2 
 _geom_angle_atom_site_label_3 
 _geom_angle 
 _geom_angle_site_symmetry_1 
 _geom_angle_site_symmetry_3 
 _geom_angle_publ_flag 
O4 S1 O3 112.64(8) . . ? 
O4 S1 O5 113.33(8) . . ? 
O3 S1 O5 112.60(8) . . ? 
O4 S1 C11 106.27(7) . . ? 
O3 S1 C11 105.16(7) . . ? 
O5 S1 C11 106.04(7) . . ? 
O1 N1 O2 125.45(15) . . ? 
O1 N1 C6 117.01(15) . . ? 
O2 N1 C6 117.54(13) . . ? 
N3 N2 C1 174.80(16) . . ? 
C2 C1 C6 122.69(14) . . ? 
C2 C1 N2 116.45(13) . . ? 
C6 C1 N2 120.80(14) . . ? 
C1 C2 C3 117.50(14) . . ? 
C2 C3 C4 120.64(15) . . ? 
C3 C4 C5 120.71(15) . . ? 
C6 C5 C4 119.77(14) . . ? 
C5 C6 C1 118.67(14) . . ? 
C5 C6 N1 119.84(13) . . ? 
C1 C6 N1 121.49(14) . . ? 
C9 C8 C13 118.79(15) . . ? 
C9 C8 C7 120.34(16) . . ? 
C13 C8 C7 120.86(17) . . ? 
C8 C9 C10 121.16(15) . . ? 
C11 C10 C9 119.30(15) . . ? 
C12 C11 C10 120.33(14) . . ? 
C12 C11 S1 120.91(11) . . ? 
C10 C11 S1 118.70(12) . . ? 
C11 C12 C13 119.54(15) . . ? 
C8 C13 C12 120.85(16) . . ? 
 
_diffrn_measured_fraction_theta_max    0.845 
_diffrn_reflns_theta_full              30.35 
_diffrn_measured_fraction_theta_full   0.845 
_refine_diff_density_max    0.424 
_refine_diff_density_min   -0.435 
_refine_diff_density_rms    0.054 

#===END

